sat
(:added-eqs                       115
 :arith-eq-adapter                54
 :arith-diseq                     4
 :arith-grobner-calls             2
 :arith-horner-calls              1
 :arith-horner-cross-nested-forms 3
 :arith-lower                     28
 :arith-make-feasible             16
 :arith-max-columns               463
 :arith-max-rows                  77
 :arith-nla-add-bounds            4
 :arith-nla-propagate-eq          24
 :arith-upper                     83
 :binary-propagations             231
 :decisions                       120
 :del-clause                      2
 :final-checks                    5
 :max-memory                      104.47
 :memory                          31.16
 :mk-bool-var                     399
 :mk-clause                       75
 :mk-clause-binary                936
 :num-allocs                      1007917107
 :num-checks                      1
 :propagations                    237
 :rlimit-count                    656657
 :sat-backjumps                   130
 :sat-conflicts                   130
 :sat-decisions                   378
 :sat-del-clause                  2
 :sat-elim-bool-vars-res          19998
 :sat-elim-literals               248
 :sat-minimized-lits              322
 :sat-mk-clause-2ary              80736
 :sat-mk-clause-3ary              34017
 :sat-mk-clause-nary              174008
 :sat-mk-var                      54864
 :sat-propagations-2ary           32891
 :sat-propagations-nary           22542
 :sat-scc-elim-binary             340
 :sat-scc-elim-vars               70
 :sat-subs-resolution             244
 :sat-subs-resolution-dyn         15
 :sat-subsumed                    16154
 :sat-units                       2
 :sls-arith-steps                 179
 :sls-ddfw-flips                  410.00
 :sls-ddfw-shifts                 117.00
 :sls-num-guided-search           1
 :sls-repair-down                 30
 :sls-repair-up                   59
 :time                            0.34
 :total-time                      0.34)
